1 5 30
3310
  3.4  0.07  45.3 7012.0   0.0
 0.04 3739.7  14.5
 0.06 5591.0  21.6
 0.09 7604.7  29.4
 0.09 7538.3  29.2
 0.04 3415.4  13.2
  685
 1169
  555
  907
  748
 1337
 1185
  979
  931
  929
  588
  780
 1475
 1210
  835
 1228
 1469
  530
 1010
  642
  614
  833
 1459
 1169
  641
  751
 1304
  765
 1346
  548
